Test: fpga10_9_sat.cnf
Options: -no-inverting-opt -activity-look-freq=1
WARNING: for repeatability, setting FPU to use double precision
============================[ Problem Statistics ]=============================
|                                                                             |
|  Number of symmetries:           23                                         |
|  Number of invertingSyms:         0                                         |
|  Number of variables:           135                                         |
|  Number of clauses:             549                                         |
|  Parse time:                   0.00 s                                       |
|                                                                             |
============================[ Search Statistics ]==============================
| Conflicts |          ORIGINAL         |          LEARNT          | Progress |
|           |    Vars  Clauses Literals |    Limit  Clauses Lit/Cl |          |
===============================================================================
|       100 |     135      549     1485 |      201      219     30 |  0.006 % |
===============================================================================
restarts              : 3
conflicts             : 204            (25500 /sec)
symconflicts          : 72             (9000 /sec)
decisions             : 454            (0.00 % random) (56750 /sec)
propagations          : 9683           (1210375 /sec)
sympropagations       : 242            (30250 /sec)
conflict literals     : 5082           (2.36 % deleted)
literals     : 5082           (2.36 % deleted)

HEURISTIC USAGES
random                : 0           
activity w/ lookahead : 453         
activity no lookahead : 0           
original sp           : 0           
sym count             : 0           

Memory used           : 5.00 MB
CPU time              : 0.008 s

SATISFIABLE
